p cnf 7230 17
-5006 -5010 -5367 0
-5004 -5012 -5365 0
-4406 -5060 5363 0
5006 -5368 0
5004 -5366 0
4406 -5364 0
5367 5368 0
5365 5366 0
-5363 5364 0
5010 -5368 0
5012 -5366 0
5060 -5364 0
-4416 -5052 5370 0
-5361 5362 0
5361 -5362 0
5052 -5370 0
4416 -5370 0
